\ Model KS
\ LP format - for model browsing. Use MPS format to capture full model detail.
Minimize
  - y_0 - y_1 - y_2 - y_3 - y_5 - y_7
Subject To
 budget: 4 y_0 + 6 y_1 + 2 y_2 + 3 y_3 + 8 y_4 + 4 y_5 + 4 y_6 + 5 y_7
   + 5 y_8 + 4 y_9 <= 30
Bounds
Binaries
 y_0 y_1 y_2 y_3 y_4 y_5 y_6 y_7 y_8 y_9
End
